p cnf 638
-5 1
-6 2
-7 3
-8 4
-9 1
-9 5
-1 -5 9
-10 2
-10 5
-2 -5 10
-11 3
-11 5
-3 -5 11
-12 4
-12 5
-4 -5 12
-13 1
-13 6
-1 -6 13
-14 2
-14 6
-2 -6 14
-15 3
-15 6
-3 -6 15
-16 4
-16 6
-4 -6 16
-17 10
-17 -13
-10 13 17
-18 -10
-18 13
10 -13 18
-19 -17
-19 -18
17 18 19
-20 10
-20 13
-10 -13 20
-21 11
-21 -14
-11 14 21
-22 -11
-22 14
11 -14 22
-23 -21
-23 -22
21 22 23
-24 11
-24 14
-11 -14 24
-25 -20
-25 -23
20 23 25
-26 20
-26 23
-20 -23 26
-27 -25
-27 -26
25 26 27
-28 20
-28 -23
-20 23 28
-29 -24
-29 -28
24 28 29
-30 12
-30 -15
-12 15 30
-31 -12
-31 15
12 -15 31
-32 -30
-32 -31
30 31 32
-33 12
-33 15
-12 -15 33
-34 29
-34 -32
-29 32 34
-35 -29
-35 32
29 -32 35
-36 -34
-36 -35
34 35 36
-37 -29
-37 -32
29 32 37
-38 -33
-38 -37
33 37 38
-39 16
-39 38
-16 -38 39
-40 -16
-40 -38
16 38 40
-41 -39
-41 -40
39 40 41
-42 16
-42 -38
-16 38 42
-43 1
-43 7
-1 -7 43
-44 2
-44 7
-2 -7 44
-45 3
-45 7
-3 -7 45
-46 4
-46 7
-4 -7 46
-47 -27
-47 -43
27 43 47
-48 27
-48 43
-27 -43 48
-49 -47
-49 -48
47 48 49
-50 -27
-50 43
27 -43 50
-51 -36
-51 -44
36 44 51
-52 36
-52 44
-36 -44 52
-53 -51
-53 -52
51 52 53
-54 -36
-54 44
36 -44 54
-55 -50
-55 -53
50 53 55
-56 50
-56 53
-50 -53 56
-57 -55
-57 -56
55 56 57
-58 50
-58 -53
-50 53 58
-59 -54
-59 -58
54 58 59
-60 -41
-60 -45
41 45 60
-61 41
-61 45
-41 -45 61
-62 -60
-62 -61
60 61 62
-63 -41
-63 45
41 -45 63
-64 59
-64 -62
-59 62 64
-65 -59
-65 62
59 -62 65
-66 -64
-66 -65
64 65 66
-67 -59
-67 -62
59 62 67
-68 -63
-68 -67
63 67 68
-69 42
-69 -46
-42 46 69
-70 -42
-70 46
42 -46 70
-71 -69
-71 -70
69 70 71
-72 42
-72 46
-42 -46 72
-73 68
-73 -71
-68 71 73
-74 -68
-74 71
68 -71 74
-75 -73
-75 -74
73 74 75
-76 -68
-76 -71
68 71 76
-77 -72
-77 -76
72 76 77
-78 1
-78 8
-1 -8 78
-79 2
-79 8
-2 -8 79
-80 3
-80 8
-3 -8 80
-81 4
-81 8
-4 -8 81
-82 -57
-82 -78
57 78 82
-83 57
-83 78
-57 -78 83
-84 -82
-84 -83
82 83 84
-85 -57
-85 78
57 -78 85
-86 -66
-86 -79
66 79 86
-87 66
-87 79
-66 -79 87
-88 -86
-88 -87
86 87 88
-89 -66
-89 79
66 -79 89
-90 -85
-90 -88
85 88 90
-91 85
-91 88
-85 -88 91
-92 -90
-92 -91
90 91 92
-93 85
-93 -88
-85 88 93
-94 -89
-94 -93
89 93 94
-95 -75
-95 -80
75 80 95
-96 75
-96 80
-75 -80 96
-97 -95
-97 -96
95 96 97
-98 -75
-98 80
75 -80 98
-99 94
-99 -97
-94 97 99
-100 -94
-100 97
94 -97 100
-101 -99
-101 -100
99 100 101
-102 -94
-102 -97
94 97 102
-103 -98
-103 -102
98 102 103
-104 -77
-104 -81
77 81 104
-105 77
-105 81
-77 -81 105
-106 -104
-106 -105
104 105 106
-107 -77
-107 81
77 -81 107
-108 103
-108 -106
-103 106 108
-109 -103
-109 106
103 -106 109
-110 -108
-110 -109
108 109 110
-111 -103
-111 -106
103 106 111
-112 -107
-112 -111
107 111 112
-113 -14
-113 43
14 -43 113
-114 14
-114 -43
-14 43 114
-115 -113
-115 -114
113 114 115
-116 14
-116 43
-14 -43 116
-117 -20
-117 -115
20 115 117
-118 20
-118 115
-20 -115 118
-119 -117
-119 -118
117 118 119
-120 20
-120 -115
-20 115 120
-121 -116
-121 -120
116 120 121
-122 -44
-122 78
44 -78 122
-123 44
-123 -78
-44 78 123
-124 -122
-124 -123
122 123 124
-125 44
-125 78
-44 -78 125
-126 121
-126 -124
-121 124 126
-127 -121
-127 124
121 -124 127
-128 -126
-128 -127
126 127 128
-129 -121
-129 -124
121 124 129
-130 -125
-130 -129
125 129 130
-131 79
-131 130
-79 -130 131
-132 -79
-132 -130
79 130 132
-133 -131
-133 -132
131 132 133
-134 79
-134 -130
-79 130 134
-135 -11
-135 -119
11 119 135
-136 11
-136 119
-11 -119 136
-137 -135
-137 -136
135 136 137
-138 11
-138 -119
-11 119 138
-139 -15
-139 -128
15 128 139
-140 15
-140 128
-15 -128 140
-141 -139
-141 -140
139 140 141
-142 15
-142 -128
-15 128 142
-143 -138
-143 -141
138 141 143
-144 138
-144 141
-138 -141 144
-145 -143
-145 -144
143 144 145
-146 138
-146 -141
-138 141 146
-147 -142
-147 -146
142 146 147
-148 -45
-148 -133
45 133 148
-149 45
-149 133
-45 -133 149
-150 -148
-150 -149
148 149 150
-151 45
-151 -133
-45 133 151
-152 147
-152 -150
-147 150 152
-153 -147
-153 150
147 -150 153
-154 -152
-154 -153
152 153 154
-155 -147
-155 -150
147 150 155
-156 -151
-156 -155
151 155 156
-157 -80
-157 134
80 -134 157
-158 80
-158 -134
-80 134 158
-159 -157
-159 -158
157 158 159
-160 80
-160 134
-80 -134 160
-161 156
-161 -159
-156 159 161
-162 -156
-162 159
156 -159 162
-163 -161
-163 -162
161 162 163
-164 -156
-164 -159
156 159 164
-165 -160
-165 -164
160 164 165
-166 -12
-166 -145
12 145 166
-167 12
-167 145
-12 -145 167
-168 -166
-168 -167
166 167 168
-169 12
-169 -145
-12 145 169
-170 -16
-170 -154
16 154 170
-171 16
-171 154
-16 -154 171
-172 -170
-172 -171
170 171 172
-173 16
-173 -154
-16 154 173
-174 -169
-174 -172
169 172 174
-175 169
-175 172
-169 -172 175
-176 -174
-176 -175
174 175 176
-177 169
-177 -172
-169 172 177
-178 -173
-178 -177
173 177 178
-179 -46
-179 -163
46 163 179
-180 46
-180 163
-46 -163 180
-181 -179
-181 -180
179 180 181
-182 46
-182 -163
-46 163 182
-183 178
-183 -181
-178 181 183
-184 -178
-184 181
178 -181 184
-185 -183
-185 -184
183 184 185
-186 -178
-186 -181
178 181 186
-187 -182
-187 -186
182 186 187
-188 -81
-188 -165
81 165 188
-189 81
-189 165
-81 -165 189
-190 -188
-190 -189
188 189 190
-191 81
-191 -165
-81 165 191
-192 187
-192 -190
-187 190 192
-193 -187
-193 190
187 -190 193
-194 -192
-194 -193
192 193 194
-195 -187
-195 -190
187 190 195
-196 -191
-196 -195
191 195 196
-197 -49
-197 137
49 -137 197
-198 49
-198 -137
-49 137 198
-199 -197
-199 -198
197 198 199
-200 -84
-200 168
84 -168 200
-201 84
-201 -168
-84 168 201
-202 -200
-202 -201
200 201 202
-203 -92
-203 176
92 -176 203
-204 92
-204 -176
-92 176 204
-205 -203
-205 -204
203 204 205
-206 -101
-206 185
101 -185 206
-207 101
-207 -185
-101 185 207
-208 -206
-208 -207
206 207 208
-209 -110
-209 194
110 -194 209
-210 110
-210 -194
-110 194 210
-211 -209
-211 -210
209 210 211
-212 -112
-212 196
112 -196 212
-213 112
-213 -196
-112 196 213
-214 -212
-214 -213
212 213 214
-215 199
-215 202
-199 -202 215
-216 205
-216 208
-205 -208 216
-217 211
-217 214
-211 -214 217
-218 216
-218 217
-216 -217 218
-219 215
-219 218
-215 -218 219
-219
